(set-logic QF_S)
(declare-fun var0 () String)
(assert (RegexIn var0 (RegexConcat (RegexUnion (RegexPlus (Str2Reg "0")) (RegexPlus (Str2Reg "1"))) (RegexConcat (RegexUnion (RegexStar (Str2Reg "2")) (RegexStar (Str2Reg "333"))) (RegexConcat (RegexUnion (RegexUnion (Str2Reg "4") (Str2Reg "55")) (RegexUnion (Str2Reg "6") (Str2Reg "7"))) (RegexConcat (RegexPlus (RegexStar (Str2Reg "88"))) (RegexConcat (RegexUnion (RegexStar (Str2Reg "999")) (RegexStar (Str2Reg "a"))) (RegexConcat (RegexUnion (RegexPlus (Str2Reg "b")) (RegexPlus (Str2Reg "ccc"))) (RegexConcat (RegexPlus (RegexPlus (Str2Reg "dd"))) (RegexUnion (RegexPlus (Str2Reg "e")) (RegexPlus (Str2Reg "fff"))))))))))))
(check-sat)